92 4
28 23 28 29
0 0 0 0 0 3 2 3 4
8 0 0 10 0 3 11 22 43
6 2 0 0 0 3 5 9 38
4 0 0 0 9 3 7 15 62
1 4 0 0 0 3 6 10 26
10 4 0 0 0 3 8 19 20
4 0 0 0 3 3 18 55 72
2 8 0 0 0 1 24
4 0 10 0 0 2 13 27
1 0 3 0 0 3 12 14 16
5 0 0 0 3 2 17 80
7 9 0 0 0 1 42
9 0 0 0 6 1 21
2 2 0 0 0 2 30 72
6 0 7 0 0 3 34 35 63
2 0 0 9 0 3 23 28 36
5 0 1 0 0 3 25 73 83
9 0 0 0 3 1 57
9 0 1 0 0 1 31
4 0 0 0 2 1 48
3 6 0 0 0 3 32 50 82
7 2 0 0 0 2 37 52
10 0 0 5 0 1 41
3 3 0 0 0 2 29 70
3 0 0 8 0 3 36 40 71
3 2 0 0 0 2 32 70
10 0 0 2 0 3 60 85 87
3 0 0 2 0 3 33 44 45
1 0 0 1 0 1 41
10 0 10 0 0 1 59
4 8 0 0 0 1 39
4 2 0 0 0 1 74
10 0 0 0 3 1 51
7 0 6 0 0 2 53 67
3 0 0 0 6 2 54 81
10 0 9 0 0 1 53
5 0 0 8 0 2 61 79
9 0 3 0 0 1 88
2 0 0 5 0 1 46
9 4 0 0 0 1 75
3 0 0 0 5 1 49
8 6 0 0 0 2 48 49
3 0 0 5 0 1 66
5 0 0 0 4 1 47
1 0 0 0 3 3 46 52 53
6 0 0 0 8 1 56
5 10 0 0 0 1 56
3 0 1 0 0 2 58 64
10 0 9 0 0 1 83
7 9 0 0 0 1 83
4 0 0 0 7 1 69
7 0 0 1 0 2 60 74
8 1 0 0 0 1 65
9 5 0 0 0 1 65
10 3 0 0 0 1 79
10 0 0 2 0 1 76
8 0 0 6 0 1 59
1 0 0 4 0 1 84
3 0 8 0 0 1 74
2 0 0 0 10 2 70 89
1 0 0 0 6 1 68
10 0 0 0 9 1 78
1 7 0 0 0 1 78
5 0 0 0 7 1 85
2 0 0 8 0 2 75 86
7 2 0 0 0 1 77
1 0 0 0 10 1 79
1 1 0 0 0 1 76
9 0 2 0 0 1 87
8 0 0 9 0 1 77
3 0 0 0 9 1 81
10 0 0 0 5 1 75
6 0 0 6 0 1 84
7 0 0 10 0 1 91
3 8 0 0 0 2 76 84
10 0 0 10 0 1 91
2 0 0 0 5 1 86
2 2 0 0 0 1 85
2 0 5 0 0 1 82
3 9 0 0 0 1 81
9 0 0 1 0 1 90
9 0 0 0 6 1 87
4 5 0 0 0 1 91
4 8 0 0 0 1 88
4 0 0 2 0 1 86
4 0 0 0 3 1 90
4 0 4 0 0 1 89
7 4 0 0 0 1 89
6 0 0 9 0 1 92
8 0 10 0 0 1 92
1 0 0 6 0 1 92
0 0 0 0 0 0 